97 100
96 12 1
69 46 2
94 12 1
98 28 1
42 39 1
78 14 1
95 95 1
76 2 1
66 29 1
95 43 2
72 40 1
98 38 1
22 86 1
78 85 1
91 47 1
92 35 1
53 92 1
84 38 1
83 16 1
43 96 1
48 17 1
91 3 1
83 46 1
8 75 1
68 3 1
70 29 1
86 87 1
90 47 1
22 50 1
41 77 1
72 41 1
73 91 1
66 10 1
90 17 1
97 6 1
82 46 1
95 31 2
94 29 1
94 33 1
91 14 1
45 75 1
72 2 1
50 80 1
72 43 1
71 8 1
39 36 1
79 22 1
97 33 1
89 14 1
86 33 1
67 34 1
93 85 1
81 32 1
89 41 1
97 7 1
66 49 1
80 11 1
99 11 1
50 43 1
22 25 1
32 2 1
82 42 1
77 39 1
68 12 1
69 5 1
12 90 1
97 48 1
98 60 1
93 19 1
74 40 1
90 18 1
68 22 1
90 45 1
81 7 1
91 50 1
70 94 1
95 33 1
46 35 1
66 44 1
100 28 1
73 32 1
87 24 1
75 99 1
93 24 1
27 83 1
62 65 1
90 16 1
85 89 1
11 96 1
69 50 1
39 50 1
5 75 1
80 34 1
87 31 1
90 50 1
95 36 1
78 23 1
100 100 
100 100 
100 100 
100 100 
100 100 
100 100 
100 100 
100 100 
100 100 
100 100 
100 100 
100 100 
100 100 
100 100 
100 100 
100 100 
100 100 
100 100 
100 100 
100 100 
100 100 
100 100 
100 100 
100 100 
100 100 
100 100 
100 100 
100 100 
100 100 
100 100 
100 100 
100 100 
100 100 
100 100 
100 100 
100 100 
100 100 
100 100 
100 100 
100 100 
100 100 
100 100 
100 100 
100 100 
100 100 
100 100 
100 100 
100 100 
100 100 
100 100 
100 100 
100 100 
100 100 
100 100 
100 100 
100 100 
100 100 
100 100 
100 100 
100 100 
100 100 
100 100 
100 100 
100 100 
100 100 
100 100 
100 100 
100 100 
100 100 
100 100 
100 100 
100 100 
100 100 
100 100 
100 100 
100 100 
100 100 
100 100 
100 100 
100 100 
100 100 
100 100 
100 100 
100 100 
100 100 
100 100 
100 100 
100 100 
100 100 
100 100 
100 100 
100 100 
100 100 
100 100 
100 100 
100 100 
100 100 
100 100 
100 100 
100 100 
